(set-option :print-success false)
(set-logic QF_UF)
(declare-sort x138 0)
(declare-sort x100 0)
(declare-fun x129 (x100 x100) x100)
(declare-fun x53 () x100)
(declare-fun x12 () x100)
(declare-fun x79 () x100)
(declare-fun x57 () x100)
(declare-fun x137 (x100 x100) x100)
(declare-fun x67 () x100)
(assert (and (= x53 (x129 x12 x67)) (and (and (= x12 (x129 x79 x57)) (= (x129 x57 x57) x79)) (= (x129 x12 x57) x67))))
(assert (let ((x94 (x129 x57 x53)) (x91 (x129 x79 x57)) (x60 (x129 x53 x57)) (x7 (x129 x79 x12)) (x3 (x129 x12 x12)) (x128 (x129 x57 x79)) (x132 (x129 x12 x67)) (x133 (x129 x67 x57)) (x44 (x129 x53 x67)) (x81 (x129 x12 x53)) (x149 (x129 x67 x67)) (x106 (x129 x67 x53)) (x52 (x129 x12 x57)) (x80 (x129 x79 x67)) (x2 (x129 x12 x79)) (x93 (x129 x79 x79)) (x64 (x129 x57 x67)) (x92 (x129 x79 x53)) (x4 (x129 x53 x53)) (x38 (x129 x57 x57)) (x144 (x129 x53 x12)) (x105 (x129 x53 x79)) (x34 (x129 x67 x79)) (x73 (x129 x67 x12)) (x82 (x129 x57 x12))) (and (or (= x57 (x129 x38 x38)) (or (or (or (= (x129 x91 x91) x79) (= (x129 x52 x52) x12)) (= (x129 x133 x133) x67)) (= x53 (x129 x60 x60)))) (and (or (= (x129 x94 x94) x57) (or (= x53 (x129 x4 x4)) (or (or (= x79 (x129 x92 x92)) (= (x129 x81 x81) x12)) (= (x129 x106 x106) x67)))) (and (and (or (= (x129 x82 x82) x57) (or (= x53 (x129 x144 x144)) (or (or (= (x129 x7 x7) x79) (= x12 (x129 x3 x3))) (= x67 (x129 x73 x73))))) (or (= (x129 x128 x128) x57) (or (= (x129 x105 x105) x53) (or (= (x129 x34 x34) x67) (or (= (x129 x2 x2) x12) (= x79 (x129 x93 x93))))))) (or (= (x129 x64 x64) x57) (or (= (x129 x44 x44) x53) (or (or (= (x129 x132 x132) x12) (= x79 (x129 x80 x80))) (= x67 (x129 x149 x149))))))))))
(assert (let ((x73 (x129 x12 x67)) (x3 (x129 x67 x12)) (x38 (= x57 (x129 x57 x57))) (x80 (x129 x79 x53)) (x4 (x129 x57 x12)) (x94 (x129 x12 x57)) (x105 (= x12 (x129 x12 x12))) (x7 (x129 x79 x67)) (x149 (x129 x12 x53)) (x93 (= x79 (x129 x79 x79))) (x64 (x129 x67 x53)) (x91 (x129 x57 x67)) (x132 (x129 x53 x12)) (x144 (= x67 (x129 x67 x67))) (x81 (x129 x57 x79)) (x34 (x129 x79 x12)) (x44 (x129 x53 x67)) (x52 (x129 x67 x57)) (x133 (x129 x57 x53)) (x106 (x129 x79 x57)) (x128 (x129 x67 x79)) (x60 (x129 x53 x57)) (x82 (x129 x53 x79)) (x2 (x129 x12 x79)) (x92 (= (x129 x53 x53) x53))) (or (or (or (or (and (= x91 x57) (= x52 x57)) (or (and (= x57 x81) (= x106 x57)) (and (= x4 x57) (= x57 x94)))) (and (= x60 x57) (= x57 x133))) (and x38 x38)) (or (or (and (= x53 x133) (= x60 x53)) (or (or (or (and (= x132 x53) (= x53 x149)) (and (= x53 x80) (= x53 x82))) (and (= x64 x53) (= x53 x44))) (and x92 x92))) (or (or (and (= x52 x67) (= x67 x91)) (or (or (or (and (= x67 x128) (= x67 x7)) (and (= x67 x3) (= x67 x73))) (and x144 x144)) (and (= x67 x64) (= x67 x44)))) (or (or (or (or (or (and (= x79 x34) (= x2 x79)) (and x93 x93)) (and (= x7 x79) (= x128 x79))) (and (= x82 x79) (= x80 x79))) (and (= x79 x106) (= x79 x81))) (or (and (= x4 x12) (= x12 x94)) (or (and (= x12 x132) (= x12 x149)) (or (or (and x105 x105) (and (= x12 x34) (= x12 x2))) (and (= x12 x3) (= x12 x73)))))))))))
(assert (and (not (= x57 x53)) (and (not (= x57 x67)) (and (not (= x53 x67)) (and (and (and (and (not (= x79 x57)) (and (not (= x79 x53)) (and (not (= x67 x79)) (not (= x12 x79))))) (not (= x12 x67))) (not (= x12 x53))) (not (= x57 x12)))))))
(assert (not (and (and (and (and (= x53 (x129 x57 x12)) (and (and (and (= (x129 x53 x53) x79) (and (and (and (and (and (and (= (x129 x67 x67) x57) (and (= x12 (x129 x67 x12)) (and (and (and (= x57 (x129 x12 x53)) (and (= x53 (x129 x12 x67)) (and (= x79 (x129 x12 x12)) (and (= x12 (x129 x12 x79)) (and (and (and (and (= x57 (x129 x79 x12)) (= x67 (x129 x79 x79))) (= (x129 x79 x67) x79)) (= (x129 x79 x53) x53)) (= x12 (x129 x79 x57))))))) (= x67 (x129 x12 x57))) (= x79 (x129 x67 x79))))) (= x67 (x129 x67 x53))) (= (x129 x67 x57) x53)) (= x53 (x129 x53 x79))) (= x67 (x129 x53 x12))) (= x12 (x129 x53 x67)))) (= x57 (x129 x53 x57))) (= x57 (x129 x57 x79)))) (= x67 (x129 x57 x67))) (= (x129 x57 x53) x12)) (= x79 (x129 x57 x57)))))
(assert (let ((x52 (x129 x12 x57)) (x61 (x129 x57 x12)) (x63 (x129 x57 x53)) (x36 (x129 x57 x57)) (x128 (x129 x79 x53)) (x7 (x129 x79 x57)) (x55 (x129 x67 x67)) (x144 (x129 x67 x79)) (x34 (x129 x79 x12)) (x94 (x129 x12 x67)) (x2 (x129 x79 x79)) (x91 (x129 x12 x53)) (x105 (x129 x79 x67)) (x82 (x129 x53 x79)) (x22 (x129 x53 x53)) (x70 (x129 x53 x57)) (x14 (x129 x53 x67)) (x26 (x129 x57 x67)) (x150 (x129 x67 x57)) (x73 (x129 x12 x79)) (x80 (x129 x57 x79)) (x42 (x129 x53 x12)) (x4 (x129 x12 x12)) (x158 (x129 x67 x53)) (x38 (x129 x67 x12))) (let ((x143 (= x53 x4)) (x1 (= x57 x158)) (x48 (= x53 x55)) (x139 (= x57 x34)) (x92 (= x34 x79)) (x29 (= x80 x57)) (x109 (= x52 x67)) (x116 (= x79 x94)) (x19 (= x144 x67)) (x75 (= x42 x79)) (x46 (= x52 x53)) (x65 (= x12 x36)) (x71 (= x79 x70)) (x108 (= x150 x67)) (x98 (= x82 x12)) (x47 (= x53 x94)) (x147 (= x53 x158)) (x85 (= x53 x26)) (x112 (= x57 x22)) (x95 (= x67 x70)) (x11 (= x12 x22)) (x99 (= x12 x55)) (x151 (= x57 x91)) (x123 (= x53 x150)) (x104 (= x94 x12)) (x101 (= x158 x12)) (x50 (= x12 x63)) (x56 (= x12 x52)) (x118 (= x91 x67)) (x60 (= x4 x12)) (x39 (= x128 x79)) (x107 (= x150 x79)) (x122 (= x67 x4)) (x69 (= x91 x53)) (x119 (= x42 x53)) (x97 (= x7 x53)) (x146 (= x38 x57)) (x78 (= x79 x14)) (x111 (= x105 x79)) (x45 (= x12 x26)) (x141 (= x158 x79)) (x32 (= x70 x12)) (x93 (= x79 x2)) (x127 (= x61 x12)) (x130 (= x70 x57)) (x113 (= x7 x12)) (x148 (= x79 x36)) (x136 (= x79 x144)) (x121 (= x53 x38)) (x17 (= x61 x57)) (x159 (= x94 x57)) (x33 (= x12 x150)) (x74 (= x67 x105)) (x72 (= x55 x57)) (x37 (= x67 x14)) (x24 (= x22 x67)) (x28 (= x53 x22)) (x64 (= x73 x79)) (x15 (= x53 x128)) (x18 (= x158 x67)) (x81 (= x4 x79)) (x49 (= x26 x79)) (x87 (= x94 x67)) (x88 (= x80 x12)) (x135 (= x38 x79)) (x110 (= x34 x67)) (x152 (= x79 x22)) (x30 (= x42 x67)) (x132 (= x2 x67)) (x13 (= x52 x57)) (x77 (= x105 x57)) (x154 (= x53 x36)) (x149 (= x53 x2)) (x76 (= x128 x67)) (x51 (= x79 x80)) (x115 (= x82 x53)) (x62 (= x67 x61)) (x156 (= x63 x79)) (x133 (= x12 x34)) (x68 (= x79 x91)) (x126 (= x42 x12)) (x114 (= x53 x14)) (x23 (= x67 x73)) (x155 (= x67 x82)) (x40 (= x61 x53)) (x5 (= x14 x57)) (x44 (= x57 x2)) (x90 (= x79 x61)) (x140 (= x57 x82)) (x54 (= x63 x67)) (x131 (= x57 x150)) (x153 (= x53 x80)) (x83 (= x12 x38)) (x86 (= x67 x7)) (x124 (= x144 x12)) (x21 (= x55 x79)) (x25 (= x7 x57)) (x8 (= x105 x12)) (x43 (= x144 x53)) (x3 (= x12 x2)) (x59 (= x52 x79)) (x20 (= x105 x53)) (x9 (= x57 x73)) (x89 (= x79 x7)) (x157 (= x55 x67)) (x125 (= x57 x42)) (x120 (= x12 x14)) (x117 (= x128 x12)) (x84 (= x63 x53)) (x35 (= x57 x36)) (x145 (= x57 x63)) (x58 (= x36 x67)) (x103 (= x53 x73)) (x134 (= x67 x80)) (x16 (= x67 x26)) (x142 (= x53 x70)) (x106 (= x12 x73)) (x10 (= x38 x67)) (x6 (= x4 x57)) (x96 (= x57 x26)) (x41 (= x144 x57)) (x27 (= x79 x82)) (x66 (= x128 x57)) (x102 (= x91 x12)) (x31 (= x34 x53))) (and (and (and (and (and (and (and (or (or (or x43 (or x103 x149)) x115) x153) (or (or (or x20 (or x31 x149)) x15) x97)) (and (and (or (or x76 (or (or x110 x132) x74)) x86) (or (or x155 (or (or x132 x23) x19)) x134)) (and (and (or x113 (or x117 (or (or x3 x133) x8))) (or (or (or (or x3 x106) x124) x98) x88)) (and (or (or x27 (or x136 (or x64 x93))) x51) (or (or x39 (or (or x92 x93) x111)) x89))))) (and (or (or (or x77 (or x44 x139)) x66) x25) (or (or x140 (or (or x9 x44) x41)) x29))) (and (and (or (or x151 (or x159 (or x6 x9))) x13) (or (or (or (or x139 x6) x146) x125) x17)) (and (and (and (or (or x30 (or (or x122 x110) x10)) x62) (or (or (or (or x122 x23) x87) x118) x109)) (and (and (or (or (or x135 (or x92 x81)) x75) x90) (or (or (or x116 (or x64 x81)) x68) x59)) (and (or x56 (or x102 (or x104 (or x60 x106)))) (or x127 (or (or x83 (or x60 x133)) x126))))) (and (or x46 (or x69 (or (or x103 x143) x47))) (or x40 (or (or (or x143 x31) x121) x119)))))) (and (and (or (or (or x72 (or x159 x77)) x5) x96) (or (or x1 (or (or x146 x41) x72)) x131)) (and (and (and (and (or (or x120 (or (or x8 x104) x99)) x45) (or (or (or x99 (or x124 x83)) x101) x33)) (and (or x49 (or (or (or x111 x116) x21) x78)) (or (or (or (or x135 x136) x21) x141) x107))) (and (or x108 (or (or (or x10 x19) x157) x18)) (or (or x37 (or (or x74 x87) x157)) x16))) (and (or (or (or (or x20 x47) x48) x114) x85) (or (or (or x48 (or x43 x121)) x147) x123))))) (and (and (or (or (or x5 (or x125 x140)) x112) x130) (or x145 (or x112 (or (or x66 x151) x1)))) (and (and (and (or x95 (or x24 (or x37 (or x30 x155)))) (or (or (or x18 (or x76 x118)) x24) x54)) (and (and (or x32 (or x11 (or (or x98 x126) x120))) (or (or x11 (or x101 (or x102 x117))) x50)) (and (or x71 (or x152 (or x78 (or x27 x75)))) (or x156 (or (or x141 (or x39 x68)) x152))))) (and (or (or (or x114 (or x119 x115)) x28) x142) (or x84 (or x28 (or x147 (or x15 x69)))))))) (and (and (or x35 (or (or (or x13 x25) x131) x130)) (or x35 (or x145 (or (or x29 x17) x96)))) (and (and (or (or (or (or x153 x40) x85) x84) x154) (or x154 (or x142 (or (or x97 x46) x123)))) (and (and (or x58 (or (or (or x109 x86) x108) x95)) (or (or (or (or x62 x134) x16) x54) x58)) (and (and (or x148 (or (or (or x89 x59) x107) x71)) (or x148 (or (or x49 (or x90 x51)) x156))) (and (or (or (or (or x56 x113) x33) x32) x65) (or (or x50 (or x45 (or x88 x127))) x65))))))))))
(assert (and (and (or (or (or (= (x129 x67 (x129 x53 x67)) x53) (or (= (x129 x12 (x129 x53 x12)) x53) (= (x129 x79 (x129 x53 x79)) x53))) (= x53 (x129 x53 (x129 x53 x53)))) (= x53 (x129 x57 (x129 x53 x57)))) (and (or (or (or (= x67 (x129 x67 (x129 x67 x67))) (or (= (x129 x12 (x129 x67 x12)) x67) (= x67 (x129 x79 (x129 x67 x79))))) (= (x129 x53 (x129 x67 x53)) x67)) (= x67 (x129 x57 (x129 x67 x57)))) (and (or (= (x129 x57 (x129 x79 x57)) x79) (or (= x79 (x129 x53 (x129 x79 x53))) (or (or (= x79 (x129 x12 (x129 x79 x12))) (= (x129 x79 (x129 x79 x79)) x79)) (= (x129 x67 (x129 x79 x67)) x79)))) (or (= (x129 x57 (x129 x12 x57)) x12) (or (= (x129 x53 (x129 x12 x53)) x12) (or (= x12 (x129 x67 (x129 x12 x67))) (or (= (x129 x12 (x129 x12 x12)) x12) (= (x129 x79 (x129 x12 x79)) x12)))))))) (or (or (or (= x57 (x129 x67 (x129 x57 x67))) (or (= x57 (x129 x79 (x129 x57 x79))) (= x57 (x129 x12 (x129 x57 x12))))) (= (x129 x53 (x129 x57 x53)) x57)) (= x57 (x129 x57 (x129 x57 x57))))))
(assert (let ((x38 (x129 x57 x57)) (x106 (x129 x67 x53)) (x4 (x129 x53 x53)) (x82 (x129 x57 x12)) (x94 (x129 x57 x53)) (x91 (x129 x79 x57)) (x52 (x129 x12 x57)) (x7 (x129 x79 x12)) (x34 (x129 x67 x79)) (x105 (x129 x53 x79)) (x92 (x129 x79 x53)) (x44 (x129 x53 x67)) (x144 (x129 x53 x12)) (x3 (x129 x12 x12)) (x128 (x129 x57 x79)) (x2 (x129 x12 x79)) (x93 (x129 x79 x79)) (x64 (x129 x57 x67)) (x73 (x129 x67 x12)) (x81 (x129 x12 x53)) (x132 (x129 x12 x67)) (x60 (x129 x53 x57)) (x149 (x129 x67 x67)) (x133 (x129 x67 x57)) (x80 (x129 x79 x67))) (and (and (and (not (= x38 x94)) (and (and (and (not (= x38 x82)) (and (and (not (= x64 x82)) (and (not (= x38 x128)) (and (and (not (= x128 x64)) (not (= x128 x82))) (not (= x128 x94))))) (not (= x94 x82)))) (not (= x64 x94))) (not (= x64 x38)))) (and (and (and (and (and (and (not (= x73 x133)) (and (and (not (= x149 x73)) (and (and (and (not (= x149 x34)) (not (= x34 x73))) (not (= x106 x34))) (not (= x34 x133)))) (not (= x106 x73)))) (not (= x149 x106))) (not (= x149 x133))) (not (= x133 x106))) (and (and (and (and (not (= x132 x81)) (and (not (= x3 x52)) (and (not (= x3 x81)) (and (not (= x3 x132)) (and (and (and (not (= x2 x132)) (not (= x2 x3))) (not (= x2 x81))) (not (= x2 x52))))))) (not (= x52 x132))) (not (= x81 x52))) (and (and (not (= x80 x91)) (and (not (= x80 x92)) (and (not (= x91 x7)) (and (and (and (and (and (not (= x93 x80)) (not (= x7 x93))) (not (= x93 x92))) (not (= x91 x93))) (not (= x80 x7))) (not (= x7 x92)))))) (not (= x92 x91))))) (and (not (= x60 x4)) (and (and (and (and (not (= x144 x4)) (and (not (= x144 x44)) (and (and (and (not (= x44 x105)) (not (= x144 x105))) (not (= x4 x105))) (not (= x105 x60))))) (not (= x60 x144))) (not (= x44 x4))) (not (= x60 x44)))))) (and (and (and (not (= x133 x38)) (and (not (= x60 x133)) (and (and (and (and (not (= x38 x91)) (and (not (= x91 x60)) (and (not (= x91 x133)) (not (= x52 x91))))) (not (= x133 x52))) (not (= x52 x60))) (not (= x52 x38))))) (not (= x38 x60))) (and (and (and (and (not (= x106 x4)) (and (not (= x81 x94)) (and (and (and (not (= x92 x94)) (and (and (not (= x92 x106)) (not (= x81 x92))) (not (= x4 x92)))) (not (= x106 x81))) (not (= x81 x4))))) (not (= x94 x106))) (not (= x4 x94))) (and (and (and (not (= x82 x144)) (and (not (= x73 x82)) (and (and (and (and (and (not (= x7 x82)) (and (not (= x7 x144)) (and (not (= x7 x73)) (not (= x7 x3))))) (not (= x3 x73))) (not (= x3 x144))) (not (= x82 x3))) (not (= x144 x73))))) (and (and (not (= x128 x34)) (and (and (not (= x2 x128)) (and (not (= x2 x105)) (and (not (= x34 x2)) (and (not (= x93 x128)) (and (and (not (= x34 x93)) (not (= x93 x2))) (not (= x105 x93))))))) (not (= x105 x34)))) (not (= x105 x128)))) (and (not (= x64 x44)) (and (and (not (= x44 x149)) (and (and (and (and (and (and (not (= x80 x149)) (not (= x80 x132))) (not (= x44 x80))) (not (= x80 x64))) (not (= x149 x132))) (not (= x44 x132))) (not (= x64 x132)))) (not (= x149 x64))))))))))
(assert (or (or (or (and (and (not (= (x129 (x129 x53 x67) x67) x53)) (and (not (= x67 (x129 (x129 x67 x67) x67))) (and (not (= (x129 (x129 x12 x67) x67) x12)) (not (= x79 (x129 (x129 x79 x67) x67)))))) (not (= (x129 (x129 x57 x67) x67) x57))) (or (and (and (and (and (not (= x12 (x129 (x129 x12 x79) x79))) (not (= (x129 (x129 x79 x79) x79) x79))) (not (= (x129 (x129 x67 x79) x79) x67))) (not (= (x129 (x129 x53 x79) x79) x53))) (not (= x57 (x129 (x129 x57 x79) x79)))) (and (not (= x57 (x129 (x129 x57 x12) x12))) (and (not (= (x129 (x129 x53 x12) x12) x53)) (and (not (= (x129 (x129 x67 x12) x12) x67)) (and (not (= (x129 (x129 x79 x12) x12) x79)) (not (= x12 (x129 (x129 x12 x12) x12))))))))) (and (and (and (and (not (= (x129 (x129 x79 x53) x53) x79)) (not (= x12 (x129 (x129 x12 x53) x53)))) (not (= (x129 (x129 x67 x53) x53) x67))) (not (= x53 (x129 (x129 x53 x53) x53)))) (not (= (x129 (x129 x57 x53) x53) x57)))) (and (and (not (= (x129 (x129 x53 x57) x57) x53)) (and (not (= x67 (x129 (x129 x67 x57) x57))) (and (not (= x79 (x129 (x129 x79 x57) x57))) (not (= x12 (x129 (x129 x12 x57) x57)))))) (not (= (x129 (x129 x57 x57) x57) x57)))))
(assert (and (or (= x57 (x129 x57 (x129 x57 x57))) (or (or (= (x129 x57 (x129 x57 x67)) x67) (or (= x12 (x129 x57 (x129 x57 x12))) (= x79 (x129 x57 (x129 x57 x79))))) (= (x129 x57 (x129 x57 x53)) x53))) (and (and (or (= x57 (x129 x67 (x129 x67 x57))) (or (or (= x67 (x129 x67 (x129 x67 x67))) (or (= x79 (x129 x67 (x129 x67 x79))) (= x12 (x129 x67 (x129 x67 x12))))) (= (x129 x67 (x129 x67 x53)) x53))) (and (or (= x57 (x129 x12 (x129 x12 x57))) (or (or (= (x129 x12 (x129 x12 x67)) x67) (or (= x12 (x129 x12 (x129 x12 x12))) (= (x129 x12 (x129 x12 x79)) x79))) (= (x129 x12 (x129 x12 x53)) x53))) (or (= (x129 x79 (x129 x79 x57)) x57) (or (or (or (= x79 (x129 x79 (x129 x79 x79))) (= x12 (x129 x79 (x129 x79 x12)))) (= x67 (x129 x79 (x129 x79 x67)))) (= (x129 x79 (x129 x79 x53)) x53))))) (or (= x57 (x129 x53 (x129 x53 x57))) (or (or (= (x129 x53 (x129 x53 x67)) x67) (or (= x79 (x129 x53 (x129 x53 x79))) (= x12 (x129 x53 (x129 x53 x12))))) (= x53 (x129 x53 (x129 x53 x53))))))))
(assert (let ((x105 (x129 x53 x53)) (x128 (x129 x57 x57)) (x34 (x129 x67 x67)) (x2 (x129 x12 x12)) (x93 (x129 x79 x79))) (or (and (not (= x57 x128)) (and (not (= x105 x57)) (and (and (not (= x93 x57)) (not (= x57 x2))) (not (= x57 x34))))) (or (or (and (not (= x67 x128)) (and (and (and (not (= x67 x93)) (not (= x2 x67))) (not (= x67 x34))) (not (= x67 x105)))) (or (and (not (= x128 x12)) (and (and (not (= x34 x12)) (and (not (= x2 x12)) (not (= x12 x93)))) (not (= x105 x12)))) (and (and (and (not (= x79 x34)) (and (not (= x79 x93)) (not (= x2 x79)))) (not (= x105 x79))) (not (= x79 x128))))) (and (not (= x53 x128)) (and (not (= x105 x53)) (and (not (= x53 x34)) (and (not (= x93 x53)) (not (= x53 x2))))))))))
(assert (let ((x132 (x129 x67 x12)) (x106 (x129 x53 x67)) (x73 (x129 x12 x67)) (x81 (x129 x53 x12)) (x94 (x129 x53 x57)) (x128 (x129 x79 x57)) (x82 (x129 x12 x57)) (x149 (x129 x67 x67)) (x91 (x129 x57 x79)) (x80 (x129 x67 x79)) (x105 (x129 x79 x53)) (x44 (x129 x67 x53)) (x4 (x129 x53 x53)) (x52 (x129 x57 x12)) (x92 (x129 x53 x79)) (x60 (x129 x57 x53)) (x64 (x129 x67 x57)) (x93 (x129 x79 x79)) (x7 (x129 x12 x79)) (x144 (x129 x12 x53)) (x133 (x129 x57 x67)) (x34 (x129 x79 x67)) (x3 (x129 x12 x12)) (x2 (x129 x79 x12)) (x38 (x129 x57 x57))) (and (and (and (and (and (and (and (and (or (or (or (= x93 x67) (or (= x93 x12) (= x93 x79))) (= x53 x93)) (= x93 x57)) (or (= x2 x57) (or (= x53 x2) (or (= x2 x67) (or (= x2 x79) (= x12 x2)))))) (or (or (or (= x34 x67) (or (= x34 x12) (= x79 x34))) (= x53 x34)) (= x57 x34))) (or (or (or (= x67 x105) (or (= x105 x79) (= x105 x12))) (= x105 x53)) (= x105 x57))) (or (= x128 x57) (or (or (= x67 x128) (or (= x12 x128) (= x79 x128))) (= x128 x53)))) (and (or (= x82 x57) (or (= x53 x82) (or (or (= x82 x12) (= x82 x79)) (= x67 x82)))) (and (and (or (or (= x53 x73) (or (= x67 x73) (or (= x73 x12) (= x79 x73)))) (= x57 x73)) (and (or (= x57 x3) (or (= x53 x3) (or (= x67 x3) (or (= x3 x79) (= x3 x12))))) (or (= x7 x57) (or (= x7 x53) (or (= x7 x67) (or (= x7 x79) (= x12 x7))))))) (or (or (= x53 x144) (or (= x67 x144) (or (= x12 x144) (= x79 x144)))) (= x144 x57))))) (and (or (or (or (= x67 x64) (or (= x79 x64) (= x64 x12))) (= x64 x53)) (= x57 x64)) (and (or (= x44 x57) (or (= x53 x44) (or (= x44 x67) (or (= x12 x44) (= x79 x44))))) (and (or (or (= x53 x149) (or (or (= x149 x12) (= x79 x149)) (= x149 x67))) (= x149 x57)) (and (or (or (or (or (= x132 x12) (= x132 x79)) (= x67 x132)) (= x132 x53)) (= x57 x132)) (or (= x57 x80) (or (or (= x80 x67) (or (= x12 x80) (= x80 x79))) (= x53 x80)))))))) (and (and (and (and (or (or (= x53 x81) (or (= x67 x81) (or (= x81 x79) (= x12 x81)))) (= x81 x57)) (or (or (= x53 x92) (or (= x92 x67) (or (= x92 x79) (= x92 x12)))) (= x57 x92))) (or (= x106 x57) (or (= x106 x53) (or (or (= x106 x12) (= x79 x106)) (= x67 x106))))) (or (= x4 x57) (or (or (or (= x4 x12) (= x4 x79)) (= x67 x4)) (= x4 x53)))) (or (= x94 x57) (or (or (= x67 x94) (or (= x94 x79) (= x12 x94))) (= x53 x94))))) (and (and (and (or (or (or (= x67 x133) (or (= x12 x133) (= x79 x133))) (= x53 x133)) (= x57 x133)) (and (or (or (= x53 x91) (or (= x91 x67) (or (= x91 x79) (= x91 x12)))) (= x57 x91)) (or (or (= x53 x52) (or (or (= x52 x79) (= x12 x52)) (= x67 x52))) (= x57 x52)))) (or (= x60 x57) (or (= x53 x60) (or (= x60 x67) (or (= x12 x60) (= x79 x60)))))) (or (= x38 x57) (or (or (or (= x12 x38) (= x38 x79)) (= x38 x67)) (= x53 x38)))))))
(assert (let ((x2 (x129 (x129 x12 x12) x12)) (x93 (x129 (x129 x79 x79) x79)) (x105 (x129 (x129 x53 x53) x53)) (x128 (x129 (x129 x57 x57) x57)) (x34 (x129 (x129 x67 x67) x67))) (and (or (= x128 x57) (or (= x57 x105) (or (= x57 x34) (or (= x57 x93) (= x2 x57))))) (and (and (and (or (or (or (or (= x79 x2) (= x79 x93)) (= x79 x34)) (= x105 x79)) (= x79 x128)) (or (or (= x105 x12) (or (or (= x12 x93) (= x12 x2)) (= x12 x34))) (= x12 x128))) (or (or (or (or (= x67 x2) (= x67 x93)) (= x67 x34)) (= x67 x105)) (= x67 x128))) (or (or (or (or (= x93 x53) (= x2 x53)) (= x34 x53)) (= x53 x105)) (= x53 x128))))))
(assert (and (and (and (not (= x67 (x129 x67 x67))) (and (not (= (x129 x79 x79) x79)) (not (= x12 (x129 x12 x12))))) (not (= (x129 x53 x53) x53))) (not (= x57 (x129 x57 x57)))))
(assert (let ((x135 (x129 x12 x12)) (x83 (x129 x53 x12)) (x10 (x129 x53 x67)) (x23 (x129 x79 x12)) (x42 (x129 x79 x79)) (x159 (x129 x57 x53)) (x103 (x129 x67 x79)) (x124 (x129 x12 x53)) (x19 (x129 x67 x53)) (x139 (x129 x57 x79)) (x74 (x129 x67 x57)) (x55 (x129 x12 x57)) (x87 (x129 x57 x67)) (x14 (x129 x67 x67)) (x98 (x129 x57 x57)) (x77 (x129 x53 x57)) (x122 (x129 x79 x67)) (x116 (x129 x12 x67)) (x41 (x129 x53 x53)) (x21 (x129 x67 x12)) (x31 (x129 x79 x53)) (x110 (x129 x12 x79)) (x158 (x129 x57 x12)) (x9 (x129 x79 x57)) (x143 (x129 x53 x79))) (let ((x128 (not (= x79 x103))) (x149 (not (= x79 x124))) (x29 (not (= x139 x57))) (x99 (not (= x12 x116))) (x6 (not (= x110 x12))) (x147 (not (= x67 x87))) (x2 (not (= x110 x79))) (x133 (not (= x79 x159))) (x44 (not (= x10 x79))) (x107 (not (= x31 x53))) (x111 (not (= x135 x12))) (x5 (not (= x67 x98))) (x33 (not (= x87 x53))) (x27 (not (= x12 x9))) (x91 (not (= x87 x79))) (x48 (not (= x19 x12))) (x157 (not (= x12 x143))) (x52 (not (= x74 x79))) (x63 (not (= x116 x67))) (x61 (not (= x12 x42))) (x114 (not (= x67 x9))) (x18 (not (= x67 x10))) (x90 (not (= x122 x53))) (x112 (not (= x135 x53))) (x131 (not (= x159 x57))) (x132 (not (= x83 x79))) (x146 (not (= x12 x41))) (x102 (not (= x103 x67))) (x155 (not (= x14 x67))) (x88 (not (= x10 x53))) (x16 (not (= x42 x57))) (x73 (not (= x116 x79))) (x93 (not (= x42 x79))) (x81 (not (= x79 x139))) (x76 (not (= x83 x67))) (x69 (not (= x67 x55))) (x28 (not (= x67 x74))) (x47 (not (= x12 x10))) (x120 (not (= x42 x67))) (x109 (not (= x135 x57))) (x22 (not (= x110 x67))) (x66 (not (= x42 x53))) (x80 (not (= x79 x31))) (x37 (not (= x31 x67))) (x113 (not (= x53 x158))) (x85 (not (= x143 x57))) (x144 (not (= x14 x79))) (x56 (not (= x53 x55))) (x75 (not (= x158 x12))) (x126 (not (= x98 x12))) (x70 (not (= x67 x23))) (x134 (not (= x77 x53))) (x17 (not (= x9 x57))) (x156 (not (= x116 x53))) (x38 (not (= x79 x98))) (x125 (not (= x77 x67))) (x95 (not (= x122 x57))) (x115 (not (= x67 x41))) (x121 (not (= x83 x12))) (x11 (not (= x67 x21))) (x72 (not (= x12 x139))) (x20 (not (= x12 x124))) (x49 (not (= x53 x21))) (x54 (not (= x57 x110))) (x119 (not (= x67 x139))) (x104 (not (= x21 x12))) (x4 (not (= x79 x158))) (x84 (not (= x31 x57))) (x92 (not (= x79 x41))) (x117 (not (= x67 x135))) (x145 (not (= x57 x55))) (x89 (not (= x53 x14))) (x153 (not (= x57 x116))) (x58 (not (= x21 x57))) (x97 (not (= x83 x57))) (x35 (not (= x57 x98))) (x86 (not (= x57 x23))) (x62 (not (= x53 x98))) (x7 (not (= x122 x79))) (x65 (not (= x53 x159))) (x59 (not (= x143 x53))) (x127 (not (= x53 x19))) (x96 (not (= x158 x57))) (x140 (not (= x159 x67))) (x108 (not (= x57 x103))) (x50 (not (= x139 x53))) (x68 (not (= x12 x74))) (x148 (not (= x124 x53))) (x13 (not (= x74 x57))) (x26 (not (= x12 x14))) (x1 (not (= x53 x23))) (x78 (not (= x12 x55))) (x106 (not (= x79 x9))) (x101 (not (= x122 x67))) (x15 (not (= x67 x158))) (x8 (not (= x122 x12))) (x43 (not (= x31 x12))) (x45 (not (= x41 x53))) (x25 (not (= x57 x87))) (x64 (not (= x19 x79))) (x141 (not (= x159 x12))) (x24 (not (= x67 x19))) (x150 (not (= x103 x12))) (x30 (not (= x67 x143))) (x123 (not (= x10 x57))) (x36 (not (= x9 x53))) (x82 (not (= x79 x143))) (x60 (not (= x79 x77))) (x71 (not (= x53 x83))) (x40 (not (= x57 x14))) (x39 (not (= x12 x87))) (x46 (not (= x124 x57))) (x94 (not (= x79 x55))) (x136 (not (= x12 x23))) (x118 (not (= x124 x67))) (x34 (not (= x79 x23))) (x32 (not (= x74 x53))) (x152 (not (= x12 x77))) (x3 (not (= x79 x21))) (x105 (not (= x79 x135))) (x154 (not (= x57 x41))) (x130 (not (= x77 x57))) (x51 (not (= x53 x103))) (x142 (not (= x19 x57))) (x151 (not (= x53 x110)))) (or (and (and (and (or x131 x130) (and (or x25 x13) (and (or x29 x17) (or x145 x96)))) (or x35 x35)) (and (and (and (and (or x142 x123) (and (and (or x108 x95) (or x58 x153)) (or x40 x40))) (or x25 x13)) (and (and (or x29 x17) (and (and (and (or x16 x16) (or x86 x54)) (or x108 x95)) (or x85 x84))) (and (or x145 x96) (and (or x46 x97) (and (and (or x54 x86) (or x109 x109)) (or x153 x58)))))) (and (or x131 x130) (and (or x154 x154) (and (and (or x46 x97) (or x84 x85)) (or x123 x142)))))) (or (or (or (and (and (and (or x60 x133) (and (and (or x44 x64) (and (or x132 x149) (or x80 x82))) (or x92 x92))) (and (and (and (or x106 x81) (and (and (and (or x93 x93) (or x2 x34)) (or x128 x7)) (or x82 x80))) (and (and (and (or x3 x73) (and (or x105 x105) (or x34 x2))) (or x149 x132)) (or x4 x94))) (and (and (or x44 x64) (and (and (or x3 x73) (or x128 x7)) (or x144 x144))) (or x52 x91)))) (and (or x38 x38) (and (and (or x52 x91) (and (or x81 x106) (or x4 x94))) (or x60 x133)))) (and (and (and (and (and (and (or x157 x43) (and (and (or x61 x61) (or x6 x136)) (or x8 x150))) (or x27 x72)) (and (and (and (and (or x111 x111) (or x136 x6)) (or x104 x99)) (or x20 x121)) (or x75 x78))) (and (or x39 x68) (and (and (or x26 x26) (and (or x150 x8) (or x104 x99))) (or x47 x48)))) (and (or x152 x141) (and (and (or x47 x48) (and (or x20 x121) (or x157 x43))) (or x146 x146)))) (and (or x126 x126) (and (and (or x39 x68) (and (or x75 x78) (or x72 x27))) (or x152 x141))))) (and (and (and (or x140 x125) (and (or x28 x147) (and (or x114 x119) (or x15 x69)))) (or x5 x5)) (and (and (and (or x28 x147) (and (and (and (or x63 x11) (or x102 x101)) (or x155 x155)) (or x24 x18))) (and (and (or x119 x114) (and (and (or x101 x102) (and (or x22 x70) (or x120 x120))) (or x37 x30))) (and (or x69 x15) (and (or x118 x76) (and (and (or x117 x117) (or x22 x70)) (or x63 x11)))))) (and (or x140 x125) (and (and (and (or x37 x30) (or x118 x76)) (or x18 x24)) (or x115 x115)))))) (and (and (and (or x65 x134) (and (or x45 x45) (and (or x127 x88) (and (or x148 x71) (or x107 x59))))) (and (and (and (and (or x71 x148) (and (and (or x151 x1) (or x112 x112)) (or x156 x49))) (or x56 x113)) (and (and (or x59 x107) (and (and (or x1 x151) (or x66 x66)) (or x51 x90))) (or x50 x36))) (and (or x33 x32) (and (or x88 x127) (and (or x89 x89) (and (or x90 x51) (or x49 x156))))))) (and (and (and (or x32 x33) (and (or x56 x113) (or x36 x50))) (or x134 x65)) (or x62 x62))))))))
(check-sat)
(exit)
